
Gurobi 10.0.3 (win64, gurobi_cl) logging started Wed Mar 26 19:02:01 2025

Set parameter Username
Set parameter LogFile to value "gurobi.log"
Academic license - for non-commercial use only - expires 2026-03-26
Using license file D:\\Gurobi\\gurobi.lic
